Version identifier: 22.1.1.0 | 2022-11-28 | 9160aff4d
CPXPARAM_ClockType                               1
CPXPARAM_Read_DataCheck                          1
CPXPARAM_Threads                                 1
CPXPARAM_TimeLimit                               7200
CPXPARAM_MIP_Tolerances_AbsMIPGap                0
CPXPARAM_MIP_Tolerances_MIPGap                   0
CPXPARAM_MIP_Tolerances_Integrality              0
Found incumbent of value 0.000000 after 0.00 sec. (1.44 ticks)
Tried aggregator 1 time.
MIP Presolve eliminated 27 rows and 9 columns.
MIP Presolve modified 18 coefficients.
Reduced MIP has 65353 rows, 3674 columns, and 199325 nonzeros.
Reduced MIP has 3674 binaries, 0 generals, 0 SOSs, and 0 indicators.
Presolve time = 0.13 sec. (77.98 ticks)
Probing time = 0.00 sec. (4.94 ticks)
Tried aggregator 1 time.
Detecting symmetries...
Reduced MIP has 65353 rows, 3674 columns, and 199325 nonzeros.
Reduced MIP has 3674 binaries, 0 generals, 0 SOSs, and 0 indicators.
Presolve time = 0.20 sec. (104.09 ticks)
Probing time = 0.00 sec. (4.94 ticks)
Clique table members: 1280.
MIP emphasis: balance optimality and feasibility.
MIP search method: dynamic search.
Parallel mode: none, using 1 thread.
Root relaxation solution time = 3.43 sec. (1280.51 ticks)

        Nodes                                         Cuts/
   Node  Left     Objective  IInf  Best Integer    Best Bound    ItCnt     Gap

*     0+    0                            0.0000     3175.0000              --- 
      0     0     3175.0000   637        0.0000     3175.0000     4992     --- 
      0     0     3175.0000    59        0.0000   ZeroHalf: 2     5133     --- 
      0     0     3175.0000   101        0.0000      Cuts: 32     5618     --- 
      0     0     3175.0000    28        0.0000   ZeroHalf: 6     5652     --- 
*     0+    0                         3118.0000     3175.0000             1.83%
*     0+    0                         3125.0000     3175.0000             1.60%
*     0+    0                         3132.0000     3175.0000             1.37%
      0     0        cutoff           3132.0000     3175.0000     5652    1.37%
      0     0     3175.0000    53     3132.0000  ZeroHalf: 22     5857    1.37%
*     0+    0                         3173.0000     3175.0000             0.06%
*     0+    0                         3174.0000     3175.0000             0.03%
Detecting symmetries...

Repeating presolve.
Tried aggregator 2 times.
MIP Presolve eliminated 1808 rows and 1272 columns.
Aggregator did 2 substitutions.
Reduced MIP has 63543 rows, 2400 columns, and 193703 nonzeros.
Reduced MIP has 2400 binaries, 0 generals, 0 SOSs, and 0 indicators.
Presolve time = 0.14 sec. (96.46 ticks)
Probing fixed 15 vars, tightened 0 bounds.
Probing time = 0.02 sec. (12.11 ticks)
Tried aggregator 1 time.
MIP Presolve eliminated 3060 rows and 142 columns.
MIP Presolve modified 24 coefficients.
Reduced MIP has 60483 rows, 2258 columns, and 183996 nonzeros.
Reduced MIP has 2258 binaries, 0 generals, 0 SOSs, and 0 indicators.
Presolve time = 0.22 sec. (127.21 ticks)
Probing time = 0.01 sec. (4.68 ticks)
Tried aggregator 1 time.
Detecting symmetries...
Reduced MIP has 60483 rows, 2258 columns, and 183996 nonzeros.
Reduced MIP has 2258 binaries, 0 generals, 0 SOSs, and 0 indicators.
Presolve time = 0.18 sec. (96.99 ticks)
Represolve time = 0.65 sec. (408.02 ticks)
Probing time = 0.01 sec. (11.21 ticks)
Clique table members: 534.
MIP emphasis: balance optimality and feasibility.
MIP search method: dynamic search.
Parallel mode: none, using 1 thread.
Root relaxation solution time = 0.16 sec. (177.98 ticks)

        Nodes                                         Cuts/
   Node  Left     Objective  IInf  Best Integer    Best Bound    ItCnt     Gap

*     0+    0                         3174.0000     3175.0000             0.03%
      0     0     3175.0000    93     3174.0000     3175.0000     6044    0.03%
*     0+    0                         3175.0000     3175.0000             0.00%
      0     0        cutoff           3175.0000     3175.0000     6044    0.00%
Elapsed time = 143.41 sec. (69922.95 ticks, tree = 0.01 MB, solutions = 7)

Zero-half cuts applied:  2

Root node processing (before b&c):
  Real time             =  143.41 sec. (69923.49 ticks)
Sequential b&c:
  Real time             =    0.00 sec. (0.00 ticks)
                          ------------
Total (root+branch&cut) =  143.41 sec. (69923.49 ticks)
Solution is feasible.

---------------------
@@@ MIP_optimal
>>> Benchmark mc2024_track1_175.cnf k 10 OPT 3175 TimeCost 151.10615825653076 TimeSolve 144.23905158042908 TimeRead 0.012680530548095703 TimeTrans 6.854426145553589
